p edge 40 195 10
v 4 5 17 20 40
v 2 7 29
v 3 6 12 24
v 5 2 13 16 21 39
v 4 1 9 25 34
v 4 10 11 22 36
v 7 8 14 18 19 26 28 38
v 3 30 33 37
v 3 23 27 35
v 5 3 4 15 31 32
e 1 3
e 1 7
e 1 13
e 1 15
e 1 22
e 1 27
e 1 29
e 1 39
e 1 40
e 2 17
e 2 18
e 2 31
e 2 32
e 2 37
e 2 38
e 2 39
e 3 6
e 3 11
e 3 14
e 3 21
e 3 22
e 3 27
e 3 30
e 3 31
e 3 39
e 4 8
e 4 10
e 4 11
e 4 12
e 4 13
e 4 17
e 4 18
e 4 22
e 4 25
e 4 28
e 4 30
e 4 35
e 4 36
e 4 40
e 5 9
e 5 12
e 5 13
e 5 22
e 5 29
e 5 32
e 5 33
e 5 40
e 6 17
e 6 24
e 6 25
e 6 27
e 6 31
e 6 32
e 6 33
e 6 35
e 6 37
e 6 38
e 6 40
e 7 9
e 7 11
e 7 12
e 7 14
e 7 29
e 7 30
e 7 33
e 7 34
e 7 36
e 8 10
e 8 15
e 8 19
e 8 25
e 8 27
e 8 28
e 8 29
e 8 36
e 8 39
e 9 28
e 9 33
e 9 36
e 10 12
e 10 13
e 10 15
e 10 17
e 10 21
e 10 24
e 10 29
e 10 38
e 11 15
e 11 20
e 11 30
e 11 31
e 11 36
e 11 37
e 11 40
e 12 14
e 12 19
e 12 25
e 12 29
e 12 33
e 13 14
e 13 25
e 13 28
e 13 29
e 13 30
e 13 36
e 13 37
e 14 15
e 14 16
e 14 27
e 15 22
e 15 25
e 15 28
e 16 19
e 16 20
e 16 21
e 16 24
e 16 33
e 16 34
e 16 35
e 16 37
e 17 22
e 17 30
e 17 31
e 17 32
e 17 34
e 17 35
e 17 36
e 17 38
e 18 25
e 18 27
e 19 21
e 19 27
e 19 28
e 19 36
e 19 39
e 20 23
e 20 26
e 20 33
e 20 35
e 20 36
e 20 37
e 21 23
e 21 24
e 21 26
e 21 27
e 21 30
e 21 32
e 21 40
e 22 23
e 22 31
e 22 34
e 23 24
e 23 25
e 23 28
e 23 37
e 24 26
e 24 32
e 24 34
e 24 37
e 25 30
e 25 38
e 25 39
e 26 27
e 26 29
e 26 40
e 27 30
e 27 31
e 27 32
e 27 33
e 27 34
e 27 36
e 28 29
e 28 36
e 28 37
e 28 38
e 28 39
e 29 39
e 30 31
e 30 32
e 30 33
e 30 35
e 30 38
e 30 40
e 31 34
e 31 36
e 31 37
e 31 38
e 32 35
e 32 37
e 32 40
e 33 35
e 33 39
e 33 40
e 34 37
e 37 38
